maximize
  x1+x2+x3+x4+x5+x6+x7+x8
subject to
  c1: x5+x6+x7+x8 >= 2
  c2: x1+x2 <= 1
  c3: x3+x4 <= 1
  c4: x1+x5 <= 1
  c5: x2+x7 <= 1
  c6: x3+x6 <= 1
  c7: x4+x8 <= 1

binary
x1 x2 x3 x4 x5 x6 x7 x8